language ESSENCE' 1.0

letting n_courses be 198
letting n_periods be 26
letting prerequisite_RelationAsSet_Explicit_1 be
        [1, 1, 2, 2, 2, 3, 3, 3, 4, 4, 4, 5, 5, 5, 6, 7, 7, 7, 7, 8, 8, 9, 10, 10, 10, 10, 11, 11, 11, 12, 12, 12, 12,
         13, 13, 14, 14, 14, 14, 15, 16, 17, 17, 17, 17, 18, 18, 18, 19, 19, 19, 19, 20, 20, 20, 20, 21, 22, 22, 23, 23,
         23, 23, 23, 23, 23, 24, 24, 25, 25, 25, 26, 26, 27, 27, 28, 29, 29, 29, 30, 30, 30, 30, 31, 32, 32, 32, 33, 34,
         34, 34, 35, 35, 35, 35, 35, 35, 36, 36, 36, 36, 37, 37, 37, 38, 38, 38, 38, 38, 39, 39, 39, 39, 39, 43, 46, 49,
         50, 51, 56, 62, 64, 69, 71, 73, 74, 75, 77, 78, 80, 81, 84, 86, 87, 88, 91, 91, 95, 101, 103, 106, 112, 112,
         113, 115, 120, 121, 127, 129, 130, 131, 133, 138, 139, 139, 141, 144, 149, 149;
             int(1..159)]
letting prerequisite_RelationAsSet_Explicit_2 be
        [60, 125, 58, 140, 146, 78, 110, 131, 50, 130, 133, 42, 55, 143, 57, 40, 64, 70, 101, 65, 87, 56, 44, 79, 95,
         100, 71, 93, 136, 59, 99, 112, 118, 43, 90, 52, 54, 74, 114, 138, 51, 48, 109, 123, 137, 63, 135, 148, 105,
         120, 122, 132, 69, 83, 88, 96, 150, 68, 141, 49, 86, 102, 106, 116, 139, 153, 104, 126, 45, 66, 147, 62, 80,
         84, 89, 73, 91, 119, 121, 46, 67, 92, 117, 61, 75, 107, 127, 129, 41, 77, 113, 82, 94, 115, 142, 144, 149, 72,
         76, 134, 151, 81, 108, 152, 47, 85, 103, 111, 145, 53, 97, 98, 124, 128, 194, 155, 178, 172, 166, 168, 184,
         171, 162, 186, 180, 177, 196, 181, 175, 169, 191, 167, 158, 163, 187, 164, 176, 159, 182, 198, 192, 154, 195,
         157, 161, 179, 189, 188, 183, 174, 170, 193, 197, 156, 160, 185, 173, 165, 190;
             int(1..159)]
letting course_load_Function1D be
        [7, 2, 5, 6, 6, 4, 5, 5, 4, 7, 6, 7, 3, 4, 3, 2, 2, 5, 2, 3, 2, 7, 6, 6, 2, 3, 2, 6, 5, 7, 7, 6, 8, 2, 4, 4, 4,
         8, 7, 4, 3, 3, 3, 5, 5, 2, 8, 3, 3, 7, 2, 7, 4, 7, 7, 5, 8, 3, 6, 2, 5, 8, 7, 7, 5, 7, 5, 2, 6, 4, 5, 7, 7, 8,
         3, 5, 6, 5, 7, 2, 7, 4, 5, 6, 3, 8, 7, 4, 5, 2, 3, 3, 7, 7, 2, 7, 2, 8, 2, 4, 3, 2, 8, 2, 4, 6, 8, 2, 3, 3, 4,
         2, 6, 5, 6, 4, 6, 5, 4, 4, 4, 5, 5, 6, 6, 4, 4, 4, 5, 6, 4, 2, 7, 7, 4, 7, 8, 7, 6, 4, 2, 6, 3, 4, 2, 8, 5, 6,
         5, 2, 3, 3, 4, 4, 8, 3, 4, 2, 5, 5, 2, 6, 6, 7, 4, 5, 8, 7, 4, 3, 3, 6, 4, 4, 7, 4, 8, 2, 7, 5, 2, 5, 3, 7, 6,
         8, 2, 2, 3, 7, 2, 2, 2, 8, 2, 4, 4, 3;
             int(1..198)]
letting load_per_period_ub be 42
letting load_per_period_lb be 10
letting courses_per_period_ub be 9
letting courses_per_period_lb be 4
letting fin1 be 159
letting fin2 be 198
letting fin3 be 8
